param set_len = 24;
param target := 11170341;
param values := [1] 883170 [2] 1572895 [3] 402785 [4] 1614880 [5] 1889103 [6] 493265 [7] 1058840 [8] 1783997 [9] 1258425 [10] 309733 [11] 63962 [12] 2023251 [13] 992235 [14] 27535 [15] 1330559 [16] 1812867 [17] 1951174 [18] 62727 [19] 855695 [20] 412173 [21] 256619 [22] 1937466 [23] 1469783 [24] 45155 ;
